c nIsolatedPIs 0
c maxPI 32
p cnf 160 385
c gate 33 -6 -22 0
-6 -33 0
-22 -33 0
6 22 33 0
c gate 34 7 -23 0
7 -34 0
-23 -34 0
-7 23 34 0
c gate 35 -7 23 0
-7 -35 0
23 -35 0
7 -23 35 0
c gate 36 -34 -35 0
-34 -36 0
-35 -36 0
34 35 36 0
c gate 37 33 36 0
33 -37 0
36 -37 0
-33 -36 37 0
c gate 38 -3 -19 0
-3 -38 0
-19 -38 0
3 19 38 0
c gate 39 2 18 0
2 -39 0
18 -39 0
-2 -18 39 0
c gate 40 -2 -18 0
-2 -40 0
-18 -40 0
2 18 40 0
c gate 41 1 17 0
1 -41 0
17 -41 0
-1 -17 41 0
c gate 42 -40 41 0
-40 -42 0
41 -42 0
40 -41 42 0
c gate 43 -39 -42 0
-39 -43 0
-42 -43 0
39 42 43 0
c gate 44 -38 -43 0
-38 -44 0
-43 -44 0
38 43 44 0
c gate 45 4 20 0
4 -45 0
20 -45 0
-4 -20 45 0
c gate 46 3 19 0
3 -46 0
19 -46 0
-3 -19 46 0
c gate 47 -45 -46 0
-45 -47 0
-46 -47 0
45 46 47 0
c gate 48 -44 47 0
-44 -48 0
47 -48 0
44 -47 48 0
c gate 49 -5 -21 0
-5 -49 0
-21 -49 0
5 21 49 0
c gate 50 -4 -20 0
-4 -50 0
-20 -50 0
4 20 50 0
c gate 51 -49 -50 0
-49 -51 0
-50 -51 0
49 50 51 0
c gate 52 -48 51 0
-48 -52 0
51 -52 0
48 -51 52 0
c gate 53 5 21 0
5 -53 0
21 -53 0
-5 -21 53 0
c gate 54 6 22 0
6 -54 0
22 -54 0
-6 -22 54 0
c gate 55 -53 -54 0
-53 -55 0
-54 -55 0
53 54 55 0
c gate 56 -52 55 0
-52 -56 0
55 -56 0
52 -55 56 0
c gate 57 -33 -56 0
-33 -57 0
-56 -57 0
33 56 57 0
c gate 58 -37 -57 0
-37 -58 0
-57 -58 0
37 57 58 0
c gate 59 11 27 0
11 -59 0
27 -59 0
-11 -27 59 0
c gate 60 -11 -27 0
-11 -60 0
-27 -60 0
11 27 60 0
c gate 61 -59 -60 0
-59 -61 0
-60 -61 0
59 60 61 0
c gate 62 -10 26 0
-10 -62 0
26 -62 0
10 -26 62 0
c gate 63 -9 -25 0
-9 -63 0
-25 -63 0
9 25 63 0
c gate 64 9 25 0
9 -64 0
25 -64 0
-9 -25 64 0
c gate 65 -63 -64 0
-63 -65 0
-64 -65 0
63 64 65 0
c gate 66 -2 18 0
-2 -66 0
18 -66 0
2 -18 66 0
c gate 67 -1 17 0
-1 -67 0
17 -67 0
1 -17 67 0
c gate 68 -66 -67 0
-66 -68 0
-67 -68 0
66 67 68 0
c gate 69 2 -18 0
2 -69 0
-18 -69 0
-2 18 69 0
c gate 70 3 -19 0
3 -70 0
-19 -70 0
-3 19 70 0
c gate 71 -69 -70 0
-69 -71 0
-70 -71 0
69 70 71 0
c gate 72 -68 71 0
-68 -72 0
71 -72 0
68 -71 72 0
c gate 73 -4 20 0
-4 -73 0
20 -73 0
4 -20 73 0
c gate 74 -3 19 0
-3 -74 0
19 -74 0
3 -19 74 0
c gate 75 -73 -74 0
-73 -75 0
-74 -75 0
73 74 75 0
c gate 76 -72 75 0
-72 -76 0
75 -76 0
72 -75 76 0
c gate 77 5 -21 0
5 -77 0
-21 -77 0
-5 21 77 0
c gate 78 4 -20 0
4 -78 0
-20 -78 0
-4 20 78 0
c gate 79 -77 -78 0
-77 -79 0
-78 -79 0
77 78 79 0
c gate 80 -76 79 0
-76 -80 0
79 -80 0
76 -79 80 0
c gate 81 -33 -54 0
-33 -81 0
-54 -81 0
33 54 81 0
c gate 82 -5 21 0
-5 -82 0
21 -82 0
5 -21 82 0
c gate 83 -81 -82 0
-81 -83 0
-82 -83 0
81 82 83 0
c gate 84 -80 83 0
-80 -84 0
83 -84 0
80 -83 84 0
c gate 85 6 -22 0
6 -85 0
-22 -85 0
-6 22 85 0
c gate 86 -34 -85 0
-34 -86 0
-85 -86 0
34 85 86 0
c gate 87 -84 86 0
-84 -87 0
86 -87 0
84 -86 87 0
c gate 88 -8 -24 0
-8 -88 0
-24 -88 0
8 24 88 0
c gate 89 8 24 0
8 -89 0
24 -89 0
-8 -24 89 0
c gate 90 -88 -89 0
-88 -90 0
-89 -90 0
88 89 90 0
c gate 91 -35 -90 0
-35 -91 0
-90 -91 0
35 90 91 0
c gate 92 -87 91 0
-87 -92 0
91 -92 0
87 -91 92 0
c gate 93 -65 92 0
-65 -93 0
92 -93 0
65 -92 93 0
c gate 94 10 -26 0
10 -94 0
-26 -94 0
-10 26 94 0
c gate 95 9 -25 0
9 -95 0
-25 -95 0
-9 25 95 0
c gate 96 8 -24 0
8 -96 0
-24 -96 0
-8 24 96 0
c gate 97 -65 96 0
-65 -97 0
96 -97 0
65 -96 97 0
c gate 98 -95 -97 0
-95 -98 0
-97 -98 0
95 97 98 0
c gate 99 -94 98 0
-94 -99 0
98 -99 0
94 -98 99 0
c gate 100 -93 99 0
-93 -100 0
99 -100 0
93 -99 100 0
c gate 101 -62 -100 0
-62 -101 0
-100 -101 0
62 100 101 0
c gate 102 -61 -101 0
-61 -102 0
-101 -102 0
61 101 102 0
c gate 103 12 -28 0
12 -103 0
-28 -103 0
-12 28 103 0
c gate 104 -12 28 0
-12 -104 0
28 -104 0
12 -28 104 0
c gate 105 -103 -104 0
-103 -105 0
-104 -105 0
103 104 105 0
c gate 106 -60 -105 0
-60 -106 0
-105 -106 0
60 105 106 0
c gate 107 10 26 0
10 -107 0
26 -107 0
-10 -26 107 0
c gate 108 -59 -107 0
-59 -108 0
-107 -108 0
59 107 108 0
c gate 109 -7 -23 0
-7 -109 0
-23 -109 0
7 23 109 0
c gate 110 -88 -109 0
-88 -110 0
-109 -110 0
88 109 110 0
c gate 111 -64 -89 0
-64 -111 0
-89 -111 0
64 89 111 0
c gate 112 -110 111 0
-110 -112 0
111 -112 0
110 -111 112 0
c gate 113 -10 -26 0
-10 -113 0
-26 -113 0
10 26 113 0
c gate 114 -63 -113 0
-63 -114 0
-113 -114 0
63 113 114 0
c gate 115 -112 114 0
-112 -115 0
114 -115 0
112 -114 115 0
c gate 116 108 -115 0
108 -116 0
-115 -116 0
-108 115 116 0
c gate 117 106 -116 0
106 -117 0
-116 -117 0
-106 116 117 0
c gate 118 -36 -64 0
-36 -118 0
-64 -118 0
36 64 118 0
c gate 119 90 118 0
90 -119 0
118 -119 0
-90 -118 119 0
c gate 120 -57 119 0
-57 -120 0
119 -120 0
57 -119 120 0
c gate 121 115 -120 0
115 -121 0
-120 -121 0
-115 120 121 0
c gate 122 108 -121 0
108 -122 0
-121 -122 0
-108 121 122 0
c gate 123 106 -122 0
106 -123 0
-122 -123 0
-106 122 123 0
c gate 124 16 -32 0
16 -124 0
-32 -124 0
-16 32 124 0
c gate 125 -16 32 0
-16 -125 0
32 -125 0
16 -32 125 0
c gate 126 -124 -125 0
-124 -126 0
-125 -126 0
124 125 126 0
c gate 127 13 -29 0
13 -127 0
-29 -127 0
-13 29 127 0
c gate 128 -13 29 0
-13 -128 0
29 -128 0
13 -29 128 0
c gate 129 -127 -128 0
-127 -129 0
-128 -129 0
127 128 129 0
c gate 130 -126 -129 0
-126 -130 0
-129 -130 0
126 129 130 0
c gate 131 15 -31 0
15 -131 0
-31 -131 0
-15 31 131 0
c gate 132 -15 31 0
-15 -132 0
31 -132 0
15 -31 132 0
c gate 133 -131 -132 0
-131 -133 0
-132 -133 0
131 132 133 0
c gate 134 14 -30 0
14 -134 0
-30 -134 0
-14 30 134 0
c gate 135 -14 30 0
-14 -135 0
30 -135 0
14 -30 135 0
c gate 136 -134 -135 0
-134 -136 0
-135 -136 0
134 135 136 0
c gate 137 -133 -136 0
-133 -137 0
-136 -137 0
133 136 137 0
c gate 138 130 137 0
130 -138 0
137 -138 0
-130 -137 138 0
c gate 139 123 138 0
123 -139 0
138 -139 0
-123 -138 139 0
c gate 140 117 -139 0
117 -140 0
-139 -140 0
-117 139 140 0
c gate 141 -84 -140 0
-84 -141 0
-140 -141 0
84 140 141 0
c gate 142 36 84 0
36 -142 0
84 -142 0
-36 -84 142 0
c gate 143 -90 142 0
-90 -143 0
142 -143 0
90 -142 143 0
c gate 144 -141 -143 0
-141 -144 0
-143 -144 0
141 143 144 0
c gate 145 -92 -144 0
-92 -145 0
-144 -145 0
92 144 145 0
c gate 146 -107 -113 0
-107 -146 0
-113 -146 0
107 113 146 0
c gate 147 98 146 0
98 -147 0
146 -147 0
-98 -146 147 0
c gate 148 93 -147 0
93 -148 0
-147 -148 0
-93 147 148 0
c gate 149 -145 -148 0
-145 -149 0
-148 -149 0
145 148 149 0
c gate 150 61 98 0
61 -150 0
98 -150 0
-61 -98 150 0
c gate 151 148 150 0
148 -151 0
150 -151 0
-148 -150 151 0
c gate 152 -149 -151 0
-149 -152 0
-151 -152 0
149 151 152 0
c gate 153 -102 -152 0
-102 -153 0
-152 -153 0
102 152 153 0
c gate 154 105 126 0
105 -154 0
126 -154 0
-105 -126 154 0
c gate 155 129 133 0
129 -155 0
133 -155 0
-129 -133 155 0
c gate 156 136 155 0
136 -156 0
155 -156 0
-136 -155 156 0
c gate 157 154 156 0
154 -157 0
156 -157 0
-154 -156 157 0
c gate 158 102 157 0
102 -158 0
157 -158 0
-102 -157 158 0
c gate 159 -153 -158 0
-153 -159 0
-158 -159 0
153 158 159 0
c gate 160 58 -159 0
58 -160 0
-159 -160 0
-58 159 160 0
c PO
160 0
